<instance format="XCSP3" type="COP">
  <variables>
    <array id="x1" size="[4]"> 0..16 </array>
    <array id="d1" size="[6]"> 0..16 </array>
    <array id="x2" size="[9]"> 0..81 </array>
    <array id="d2" size="[36]"> 0..81 </array>
    <array id="x3" size="[18]"> 0..324 </array>
    <array id="d3" size="[153]"> 0..324 </array>
  </variables>
  <constraints>
    <group>
      <intension> eq(%0,sub(%1,%2)) </intension>
      <args> d1[0] x1[1] x1[0] </args>
      <args> d1[1] x1[2] x1[0] </args>
      <args> d1[2] x1[3] x1[0] </args>
      <args> d1[3] x1[2] x1[1] </args>
      <args> d1[4] x1[3] x1[1] </args>
      <args> d1[5] x1[3] x1[2] </args>
    </group>
    <intension> eq(x1[0],0) </intension>
    <ordered>
      <list> x1[] </list>
      <operator> lt </operator>
    </ordered>
    <cumulative>
      <origins> d1[] </origins>
      <lengths> 1x6 </lengths>
      <heights> 11x6 </heights>
      <condition> (le,15) </condition>
    </cumulative>
    <intension class="symmetry-breaking"> lt(d1[0],d1[5]) </intension>
    <group>
      <intension> eq(%0,sub(%1,%2)) </intension>
      <args> d2[0] x2[1] x2[0] </args>
      <args> d2[1] x2[2] x2[0] </args>
      <args> d2[2] x2[3] x2[0] </args>
      <args> d2[3] x2[4] x2[0] </args>
      <args> d2[4] x2[5] x2[0] </args>
      <args> d2[5] x2[6] x2[0] </args>
      <args> d2[6] x2[7] x2[0] </args>
      <args> d2[7] x2[8] x2[0] </args>
      <args> d2[8] x2[2] x2[1] </args>
      <args> d2[9] x2[3] x2[1] </args>
      <args> d2[10] x2[4] x2[1] </args>
      <args> d2[11] x2[5] x2[1] </args>
      <args> d2[12] x2[6] x2[1] </args>
      <args> d2[13] x2[7] x2[1] </args>
      <args> d2[14] x2[8] x2[1] </args>
      <args> d2[15] x2[3] x2[2] </args>
      <args> d2[16] x2[4] x2[2] </args>
      <args> d2[17] x2[5] x2[2] </args>
      <args> d2[18] x2[6] x2[2] </args>
      <args> d2[19] x2[7] x2[2] </args>
      <args> d2[20] x2[8] x2[2] </args>
      <args> d2[21] x2[4] x2[3] </args>
      <args> d2[22] x2[5] x2[3] </args>
      <args> d2[23] x2[6] x2[3] </args>
      <args> d2[24] x2[7] x2[3] </args>
      <args> d2[25] x2[8] x2[3] </args>
      <args> d2[26] x2[5] x2[4] </args>
      <args> d2[27] x2[6] x2[4] </args>
      <args> d2[28] x2[7] x2[4] </args>
      <args> d2[29] x2[8] x2[4] </args>
      <args> d2[30] x2[6] x2[5] </args>
      <args> d2[31] x2[7] x2[5] </args>
      <args> d2[32] x2[8] x2[5] </args>
      <args> d2[33] x2[7] x2[6] </args>
      <args> d2[34] x2[8] x2[6] </args>
      <args> d2[35] x2[8] x2[7] </args>
    </group>
    <intension> eq(x2[0],0) </intension>
    <ordered>
      <list> x2[] </list>
      <operator> lt </operator>
    </ordered>
    <cumulative>
      <origins> d2[] </origins>
      <lengths> 1x36 </lengths>
      <heights> 11x36 </heights>
      <condition> (le,15) </condition>
    </cumulative>
    <intension class="symmetry-breaking"> lt(d2[0],d2[35]) </intension>
    <group>
      <intension> eq(%0,sub(%1,%2)) </intension>
      <args> d3[0] x3[1] x3[0] </args>
      <args> d3[1] x3[2] x3[0] </args>
      <args> d3[2] x3[3] x3[0] </args>
      <args> d3[3] x3[4] x3[0] </args>
      <args> d3[4] x3[5] x3[0] </args>
      <args> d3[5] x3[6] x3[0] </args>
      <args> d3[6] x3[7] x3[0] </args>
      <args> d3[7] x3[8] x3[0] </args>
      <args> d3[8] x3[9] x3[0] </args>
      <args> d3[9] x3[10] x3[0] </args>
      <args> d3[10] x3[11] x3[0] </args>
      <args> d3[11] x3[12] x3[0] </args>
      <args> d3[12] x3[13] x3[0] </args>
      <args> d3[13] x3[14] x3[0] </args>
      <args> d3[14] x3[15] x3[0] </args>
      <args> d3[15] x3[16] x3[0] </args>
      <args> d3[16] x3[17] x3[0] </args>
      <args> d3[17] x3[2] x3[1] </args>
      <args> d3[18] x3[3] x3[1] </args>
      <args> d3[19] x3[4] x3[1] </args>
      <args> d3[20] x3[5] x3[1] </args>
      <args> d3[21] x3[6] x3[1] </args>
      <args> d3[22] x3[7] x3[1] </args>
      <args> d3[23] x3[8] x3[1] </args>
      <args> d3[24] x3[9] x3[1] </args>
      <args> d3[25] x3[10] x3[1] </args>
      <args> d3[26] x3[11] x3[1] </args>
      <args> d3[27] x3[12] x3[1] </args>
      <args> d3[28] x3[13] x3[1] </args>
      <args> d3[29] x3[14] x3[1] </args>
      <args> d3[30] x3[15] x3[1] </args>
      <args> d3[31] x3[16] x3[1] </args>
      <args> d3[32] x3[17] x3[1] </args>
      <args> d3[33] x3[3] x3[2] </args>
      <args> d3[34] x3[4] x3[2] </args>
      <args> d3[35] x3[5] x3[2] </args>
      <args> d3[36] x3[6] x3[2] </args>
      <args> d3[37] x3[7] x3[2] </args>
      <args> d3[38] x3[8] x3[2] </args>
      <args> d3[39] x3[9] x3[2] </args>
      <args> d3[40] x3[10] x3[2] </args>
      <args> d3[41] x3[11] x3[2] </args>
      <args> d3[42] x3[12] x3[2] </args>
      <args> d3[43] x3[13] x3[2] </args>
      <args> d3[44] x3[14] x3[2] </args>
      <args> d3[45] x3[15] x3[2] </args>
      <args> d3[46] x3[16] x3[2] </args>
      <args> d3[47] x3[17] x3[2] </args>
      <args> d3[48] x3[4] x3[3] </args>
      <args> d3[49] x3[5] x3[3] </args>
      <args> d3[50] x3[6] x3[3] </args>
      <args> d3[51] x3[7] x3[3] </args>
      <args> d3[52] x3[8] x3[3] </args>
      <args> d3[53] x3[9] x3[3] </args>
      <args> d3[54] x3[10] x3[3] </args>
      <args> d3[55] x3[11] x3[3] </args>
      <args> d3[56] x3[12] x3[3] </args>
      <args> d3[57] x3[13] x3[3] </args>
      <args> d3[58] x3[14] x3[3] </args>
      <args> d3[59] x3[15] x3[3] </args>
      <args> d3[60] x3[16] x3[3] </args>
      <args> d3[61] x3[17] x3[3] </args>
      <args> d3[62] x3[5] x3[4] </args>
      <args> d3[63] x3[6] x3[4] </args>
      <args> d3[64] x3[7] x3[4] </args>
      <args> d3[65] x3[8] x3[4] </args>
      <args> d3[66] x3[9] x3[4] </args>
      <args> d3[67] x3[10] x3[4] </args>
      <args> d3[68] x3[11] x3[4] </args>
      <args> d3[69] x3[12] x3[4] </args>
      <args> d3[70] x3[13] x3[4] </args>
      <args> d3[71] x3[14] x3[4] </args>
      <args> d3[72] x3[15] x3[4] </args>
      <args> d3[73] x3[16] x3[4] </args>
      <args> d3[74] x3[17] x3[4] </args>
      <args> d3[75] x3[6] x3[5] </args>
      <args> d3[76] x3[7] x3[5] </args>
      <args> d3[77] x3[8] x3[5] </args>
      <args> d3[78] x3[9] x3[5] </args>
      <args> d3[79] x3[10] x3[5] </args>
      <args> d3[80] x3[11] x3[5] </args>
      <args> d3[81] x3[12] x3[5] </args>
      <args> d3[82] x3[13] x3[5] </args>
      <args> d3[83] x3[14] x3[5] </args>
      <args> d3[84] x3[15] x3[5] </args>
      <args> d3[85] x3[16] x3[5] </args>
      <args> d3[86] x3[17] x3[5] </args>
      <args> d3[87] x3[7] x3[6] </args>
      <args> d3[88] x3[8] x3[6] </args>
      <args> d3[89] x3[9] x3[6] </args>
      <args> d3[90] x3[10] x3[6] </args>
      <args> d3[91] x3[11] x3[6] </args>
      <args> d3[92] x3[12] x3[6] </args>
      <args> d3[93] x3[13] x3[6] </args>
      <args> d3[94] x3[14] x3[6] </args>
      <args> d3[95] x3[15] x3[6] </args>
      <args> d3[96] x3[16] x3[6] </args>
      <args> d3[97] x3[17] x3[6] </args>
      <args> d3[98] x3[8] x3[7] </args>
      <args> d3[99] x3[9] x3[7] </args>
      <args> d3[100] x3[10] x3[7] </args>
      <args> d3[101] x3[11] x3[7] </args>
      <args> d3[102] x3[12] x3[7] </args>
      <args> d3[103] x3[13] x3[7] </args>
      <args> d3[104] x3[14] x3[7] </args>
      <args> d3[105] x3[15] x3[7] </args>
      <args> d3[106] x3[16] x3[7] </args>
      <args> d3[107] x3[17] x3[7] </args>
      <args> d3[108] x3[9] x3[8] </args>
      <args> d3[109] x3[10] x3[8] </args>
      <args> d3[110] x3[11] x3[8] </args>
      <args> d3[111] x3[12] x3[8] </args>
      <args> d3[112] x3[13] x3[8] </args>
      <args> d3[113] x3[14] x3[8] </args>
      <args> d3[114] x3[15] x3[8] </args>
      <args> d3[115] x3[16] x3[8] </args>
      <args> d3[116] x3[17] x3[8] </args>
      <args> d3[117] x3[10] x3[9] </args>
      <args> d3[118] x3[11] x3[9] </args>
      <args> d3[119] x3[12] x3[9] </args>
      <args> d3[120] x3[13] x3[9] </args>
      <args> d3[121] x3[14] x3[9] </args>
      <args> d3[122] x3[15] x3[9] </args>
      <args> d3[123] x3[16] x3[9] </args>
      <args> d3[124] x3[17] x3[9] </args>
      <args> d3[125] x3[11] x3[10] </args>
      <args> d3[126] x3[12] x3[10] </args>
      <args> d3[127] x3[13] x3[10] </args>
      <args> d3[128] x3[14] x3[10] </args>
      <args> d3[129] x3[15] x3[10] </args>
      <args> d3[130] x3[16] x3[10] </args>
      <args> d3[131] x3[17] x3[10] </args>
      <args> d3[132] x3[12] x3[11] </args>
      <args> d3[133] x3[13] x3[11] </args>
      <args> d3[134] x3[14] x3[11] </args>
      <args> d3[135] x3[15] x3[11] </args>
      <args> d3[136] x3[16] x3[11] </args>
      <args> d3[137] x3[17] x3[11] </args>
      <args> d3[138] x3[13] x3[12] </args>
      <args> d3[139] x3[14] x3[12] </args>
      <args> d3[140] x3[15] x3[12] </args>
      <args> d3[141] x3[16] x3[12] </args>
      <args> d3[142] x3[17] x3[12] </args>
      <args> d3[143] x3[14] x3[13] </args>
      <args> d3[144] x3[15] x3[13] </args>
      <args> d3[145] x3[16] x3[13] </args>
      <args> d3[146] x3[17] x3[13] </args>
      <args> d3[147] x3[15] x3[14] </args>
      <args> d3[148] x3[16] x3[14] </args>
      <args> d3[149] x3[17] x3[14] </args>
      <args> d3[150] x3[16] x3[15] </args>
      <args> d3[151] x3[17] x3[15] </args>
      <args> d3[152] x3[17] x3[16] </args>
    </group>
    <intension> eq(x3[0],0) </intension>
    <ordered>
      <list> x3[] </list>
      <operator> lt </operator>
    </ordered>
    <cumulative>
      <origins> d3[] </origins>
      <lengths> 1x153 </lengths>
      <heights> 11x153 </heights>
      <condition> (le,15) </condition>
    </cumulative>
    <intension class="symmetry-breaking"> lt(d3[0],d3[152]) </intension>
  </constraints>
  <objectives>
    <minimize> x2[8] </minimize>
  </objectives>
</instance>
